84
21
0 21 23 25 27 28 30 33 35 36 37 39 40 41 42 44 45 46 47 48 49 54 56 58 59 60 61 63 64 67 70 71 72 76 77 78 79 80 81
1 23 25 26 27 28 29 31 33 35 36 37 40 41 42 43 46 47 48 49 52 54 58 59 60 65 66 67 69 70 71 72 74 76 77 78 79 80 82
2 21 22 23 24 27 28 29 31 33 34 36 40 41 42 43 46 47 48 49 51 54 56 58 59 60 61 62 64 66 67 70 71 72 76 77
3 22 23 24 25 27 28 29 30 33 34 35 36 37 39 40 42 43 45 46 47 48 49 50 51 52 55 56 58 59 60 61 66 67 68 70 71 72 73 75 76 77 78 80 81
4 23 24 25 26 27 29 32 33 34 35 36 39 40 41 42 43 44 48 49 50 52 56 58 59 61 67 69 70 77 80
5 22 23 25 27 28 29 33 34 35 36 37 40 42 43 45 46 47 48 49 50 51 52 56 57 59 60 61 64 66 67 68 71 72 73 74 76 77 78 80 81
6 21 22 24 25 27 28 36 40 41 43 45 46 47 48 49 51 52 54 57 58 59 60 61 63 66 67 68 69 73 76 77 78 80 81 82
7 22 24 26 27 28 29 31 34 37 39 40 41 42 43 44 46 47 49 50 54 58 59 61 65 67 70 71 72 76 77 78 82
8 24 26 29 34 37 41 43 45 46 47 48 50 56 58 61 65 66 68 70 71 72 76 77 78 79 80
9 23 24 25 28 34 35 36 41 42 43 45 47 48 49 50 52 54 59 61 66 68 69 71 73 74 78 79 80 83
10 22 24 26 27 28 37 38 41 42 45 46 48 49 55 57 60 64 66 67 71 72 78 80 82 83
11 21 23 26 30 34 35 36 37 39 42 43 45 46 47 48 51 53 56 60 65 66 67 72 79 82
12 21 22 23 25 26 27 29 30 31 33 35 40 43 45 46 56 58 64 71 74 76 77
13 25 27 33 34 41 45 52 59 60 64 65 69 74 77
14 23 24 25 31 33 35 36 37 42 45 46 48 58 61 63 67 72 74 76 79 80 81 82 83
15 21 23 25 27 28 29 30 31 34 39 42 50 51 54 58 66 68 69 76 80
16 21 33 37 40 41 44 53 55 60 65 78 81 82
17 23 25 29 39 42 51 55 57 59 63 64 69 73 78 80
18 24 30 35 39 43 52 56 59 66 79
19 33 63 64 67
20 71
